from_node_id,to_node_id,driving_time_cost,length,time_stamp
0,1,1,10,0
0,27,0,0,0
1,2,8,80,0
1,3,2,20,0
1,27,1,10,0
2,1,8,80,0
2,6,2,20,0
3,1,2,20,0
3,4,3,30,0
3,12,4,40,0
4,3,3,30,0
4,5,3,30,0
4,11,4,40,0
4,25,1,10,0
5,4,3,30,0
5,6,3,30,0
5,9,2,20,0
6,2,2,20,0
6,5,3,30,0
6,8,2,20,0
7,8,3,30,0
7,18,2,20,0
8,6,2,20,0
8,7,3,30,0
8,9,3,30,0
8,16,2,20,0
9,5,2,20,0
9,8,3,30,0
9,10,2,20,0
10,9,2,20,0
10,11,3,30,0
10,16,3,30,0
10,17,4,40,0
10,15,4,40,0
11,4,4,40,0
11,10,3,30,0
11,14,4,40,0
11,12,3,30,0
12,3,4,40,0
12,11,3,30,0
12,13,9,90,0
12,26,1,10,0
13,12,9,90,0
13,24,3,30,0
14,11,4,40,0
14,15,3,30,0
14,23,2,20,0
15,10,4,40,0
15,19,3,30,0
15,22,2,20,0
15,14,3,30,0
16,8,2,20,0
16,18,3,30,0
16,17,2,20,0
16,10,3,30,0
17,16,2,20,0
17,19,2,20,0
17,10,4,40,0
18,7,2,20,0
18,20,10,100,0
18,16,3,30,0
19,17,2,20,0
19,20,5,50,0
19,15,3,30,0
20,18,10,100,0
20,19,5,50,0
20,21,3,30,0
20,22,4,40,0
21,20,3,30,0
21,22,3,30,0
21,24,3,30,0
22,15,2,20,0
22,20,4,40,0
22,21,3,30,0
22,23,3,30,0
23,14,2,20,0
23,22,3,30,0
23,24,3,30,0
24,23,3,30,0
24,21,3,30,0
24,13,3,30,0
25,4,1,10,0
26,12,1,10,0
0,1,1,10,1
0,27,0,0,1
1,2,8,80,1
1,3,2,20,1
1,27,1,10,1
2,1,8,80,1
2,6,2,20,1
3,1,2,20,1
3,4,3,30,1
3,12,4,40,1
4,3,3,30,1
4,5,3,30,1
4,11,4,40,1
4,25,1,10,1
5,4,3,30,1
5,6,3,30,1
5,9,2,20,1
6,2,2,20,1
6,5,3,30,1
6,8,2,20,1
7,8,3,30,1
7,18,2,20,1
8,6,2,20,1
8,7,3,30,1
8,9,3,30,1
8,16,2,20,1
9,5,2,20,1
9,8,3,30,1
9,10,2,20,1
10,9,2,20,1
10,11,3,30,1
10,16,3,30,1
10,17,4,40,1
10,15,4,40,1
11,4,4,40,1
11,10,3,30,1
11,14,4,40,1
11,12,3,30,1
12,3,4,40,1
12,11,3,30,1
12,13,9,90,1
12,26,1,10,1
13,12,9,90,1
13,24,3,30,1
14,11,4,40,1
14,15,3,30,1
14,23,2,20,1
15,10,4,40,1
15,19,3,30,1
15,22,2,20,1
15,14,3,30,1
16,8,2,20,1
16,18,3,30,1
16,17,2,20,1
16,10,3,30,1
17,16,2,20,1
17,19,2,20,1
17,10,4,40,1
18,7,2,20,1
18,20,10,100,1
18,16,3,30,1
19,17,2,20,1
19,20,5,50,1
19,15,3,30,1
20,18,10,100,1
20,19,5,50,1
20,21,3,30,1
20,22,4,40,1
21,20,3,30,1
21,22,3,30,1
21,24,3,30,1
22,15,2,20,1
22,20,4,40,1
22,21,3,30,1
22,23,3,30,1
23,14,2,20,1
23,22,3,30,1
23,24,3,30,1
24,23,3,30,1
24,21,3,30,1
24,13,3,30,1
25,4,1,10,1
26,12,1,10,1
0,1,1,10,2
0,27,0,0,2
1,2,8,80,2
1,3,2,20,2
1,27,1,10,2
2,1,8,80,2
2,6,2,20,2
3,1,2,20,2
3,4,3,30,2
3,12,4,40,2
4,3,3,30,2
4,5,3,30,2
4,11,4,40,2
4,25,1,10,2
5,4,3,30,2
5,6,3,30,2
5,9,2,20,2
6,2,2,20,2
6,5,3,30,2
6,8,2,20,2
7,8,3,30,2
7,18,2,20,2
8,6,2,20,2
8,7,3,30,2
8,9,3,30,2
8,16,2,20,2
9,5,2,20,2
9,8,3,30,2
9,10,2,20,2
10,9,2,20,2
10,11,3,30,2
10,16,3,30,2
10,17,4,40,2
10,15,4,40,2
11,4,4,40,2
11,10,3,30,2
11,14,4,40,2
11,12,3,30,2
12,3,4,40,2
12,11,3,30,2
12,13,9,90,2
12,26,1,10,2
13,12,9,90,2
13,24,3,30,2
14,11,4,40,2
14,15,3,30,2
14,23,2,20,2
15,10,4,40,2
15,19,3,30,2
15,22,2,20,2
15,14,3,30,2
16,8,2,20,2
16,18,3,30,2
16,17,2,20,2
16,10,3,30,2
17,16,2,20,2
17,19,2,20,2
17,10,4,40,2
18,7,2,20,2
18,20,10,100,2
18,16,3,30,2
19,17,2,20,2
19,20,5,50,2
19,15,3,30,2
20,18,10,100,2
20,19,5,50,2
20,21,3,30,2
20,22,4,40,2
21,20,3,30,2
21,22,3,30,2
21,24,3,30,2
22,15,2,20,2
22,20,4,40,2
22,21,3,30,2
22,23,3,30,2
23,14,2,20,2
23,22,3,30,2
23,24,3,30,2
24,23,3,30,2
24,21,3,30,2
24,13,3,30,2
25,4,1,10,2
26,12,1,10,2
0,1,1,10,3
0,27,0,0,3
1,2,8,80,3
1,3,2,20,3
1,27,1,10,3
2,1,8,80,3
2,6,2,20,3
3,1,2,20,3
3,4,3,30,3
3,12,4,40,3
4,3,3,30,3
4,5,3,30,3
4,11,4,40,3
4,25,1,10,3
5,4,3,30,3
5,6,3,30,3
5,9,2,20,3
6,2,2,20,3
6,5,3,30,3
6,8,2,20,3
7,8,3,30,3
7,18,2,20,3
8,6,2,20,3
8,7,3,30,3
8,9,3,30,3
8,16,2,20,3
9,5,2,20,3
9,8,3,30,3
9,10,2,20,3
10,9,2,20,3
10,11,3,30,3
10,16,3,30,3
10,17,4,40,3
10,15,4,40,3
11,4,4,40,3
11,10,3,30,3
11,14,4,40,3
11,12,3,30,3
12,3,4,40,3
12,11,3,30,3
12,13,9,90,3
12,26,1,10,3
13,12,9,90,3
13,24,3,30,3
14,11,4,40,3
14,15,3,30,3
14,23,2,20,3
15,10,4,40,3
15,19,3,30,3
15,22,2,20,3
15,14,3,30,3
16,8,2,20,3
16,18,3,30,3
16,17,2,20,3
16,10,3,30,3
17,16,2,20,3
17,19,2,20,3
17,10,4,40,3
18,7,2,20,3
18,20,10,100,3
18,16,3,30,3
19,17,2,20,3
19,20,5,50,3
19,15,3,30,3
20,18,10,100,3
20,19,5,50,3
20,21,3,30,3
20,22,4,40,3
21,20,3,30,3
21,22,3,30,3
21,24,3,30,3
22,15,2,20,3
22,20,4,40,3
22,21,3,30,3
22,23,3,30,3
23,14,2,20,3
23,22,3,30,3
23,24,3,30,3
24,23,3,30,3
24,21,3,30,3
24,13,3,30,3
25,4,1,10,3
26,12,1,10,3
0,1,1,10,4
0,27,0,0,4
1,2,8,80,4
1,3,2,20,4
1,27,1,10,4
2,1,8,80,4
2,6,2,20,4
3,1,2,20,4
3,4,3,30,4
3,12,4,40,4
4,3,3,30,4
4,5,3,30,4
4,11,4,40,4
4,25,1,10,4
5,4,3,30,4
5,6,3,30,4
5,9,2,20,4
6,2,2,20,4
6,5,3,30,4
6,8,2,20,4
7,8,3,30,4
7,18,2,20,4
8,6,2,20,4
8,7,3,30,4
8,9,3,30,4
8,16,2,20,4
9,5,2,20,4
9,8,3,30,4
9,10,2,20,4
10,9,2,20,4
10,11,3,30,4
10,16,3,30,4
10,17,4,40,4
10,15,4,40,4
11,4,4,40,4
11,10,3,30,4
11,14,4,40,4
11,12,3,30,4
12,3,4,40,4
12,11,3,30,4
12,13,9,90,4
12,26,1,10,4
13,12,9,90,4
13,24,3,30,4
14,11,4,40,4
14,15,3,30,4
14,23,2,20,4
15,10,4,40,4
15,19,3,30,4
15,22,2,20,4
15,14,3,30,4
16,8,2,20,4
16,18,3,30,4
16,17,2,20,4
16,10,3,30,4
17,16,2,20,4
17,19,2,20,4
17,10,4,40,4
18,7,2,20,4
18,20,10,100,4
18,16,3,30,4
19,17,2,20,4
19,20,5,50,4
19,15,3,30,4
20,18,10,100,4
20,19,5,50,4
20,21,3,30,4
20,22,4,40,4
21,20,3,30,4
21,22,3,30,4
21,24,3,30,4
22,15,2,20,4
22,20,4,40,4
22,21,3,30,4
22,23,3,30,4
23,14,2,20,4
23,22,3,30,4
23,24,3,30,4
24,23,3,30,4
24,21,3,30,4
24,13,3,30,4
25,4,1,10,4
26,12,1,10,4
0,1,1,10,5
0,27,0,0,5
1,2,8,80,5
1,3,2,20,5
1,27,1,10,5
2,1,8,80,5
2,6,2,20,5
3,1,2,20,5
3,4,3,30,5
3,12,4,40,5
4,3,3,30,5
4,5,3,30,5
4,11,4,40,5
4,25,1,10,5
5,4,3,30,5
5,6,3,30,5
5,9,2,20,5
6,2,2,20,5
6,5,3,30,5
6,8,2,20,5
7,8,3,30,5
7,18,2,20,5
8,6,2,20,5
8,7,3,30,5
8,9,3,30,5
8,16,2,20,5
9,5,2,20,5
9,8,3,30,5
9,10,2,20,5
10,9,2,20,5
10,11,3,30,5
10,16,3,30,5
10,17,4,40,5
10,15,4,40,5
11,4,4,40,5
11,10,3,30,5
11,14,4,40,5
11,12,3,30,5
12,3,4,40,5
12,11,3,30,5
12,13,9,90,5
12,26,1,10,5
13,12,9,90,5
13,24,3,30,5
14,11,4,40,5
14,15,3,30,5
14,23,2,20,5
15,10,4,40,5
15,19,3,30,5
15,22,2,20,5
15,14,3,30,5
16,8,2,20,5
16,18,3,30,5
16,17,2,20,5
16,10,3,30,5
17,16,2,20,5
17,19,2,20,5
17,10,4,40,5
18,7,2,20,5
18,20,10,100,5
18,16,3,30,5
19,17,2,20,5
19,20,5,50,5
19,15,3,30,5
20,18,10,100,5
20,19,5,50,5
20,21,3,30,5
20,22,4,40,5
21,20,3,30,5
21,22,3,30,5
21,24,3,30,5
22,15,2,20,5
22,20,4,40,5
22,21,3,30,5
22,23,3,30,5
23,14,2,20,5
23,22,3,30,5
23,24,3,30,5
24,23,3,30,5
24,21,3,30,5
24,13,3,30,5
25,4,1,10,5
26,12,1,10,5
0,1,1,10,6
0,27,0,0,6
1,2,8,80,6
1,3,2,20,6
1,27,1,10,6
2,1,8,80,6
2,6,2,20,6
3,1,2,20,6
3,4,3,30,6
3,12,4,40,6
4,3,3,30,6
4,5,3,30,6
4,11,4,40,6
4,25,1,10,6
5,4,3,30,6
5,6,3,30,6
5,9,2,20,6
6,2,2,20,6
6,5,3,30,6
6,8,2,20,6
7,8,3,30,6
7,18,2,20,6
8,6,2,20,6
8,7,3,30,6
8,9,3,30,6
8,16,2,20,6
9,5,2,20,6
9,8,3,30,6
9,10,2,20,6
10,9,2,20,6
10,11,3,30,6
10,16,3,30,6
10,17,4,40,6
10,15,4,40,6
11,4,4,40,6
11,10,3,30,6
11,14,4,40,6
11,12,3,30,6
12,3,4,40,6
12,11,3,30,6
12,13,9,90,6
12,26,1,10,6
13,12,9,90,6
13,24,3,30,6
14,11,4,40,6
14,15,3,30,6
14,23,2,20,6
15,10,4,40,6
15,19,3,30,6
15,22,2,20,6
15,14,3,30,6
16,8,2,20,6
16,18,3,30,6
16,17,2,20,6
16,10,3,30,6
17,16,2,20,6
17,19,2,20,6
17,10,4,40,6
18,7,2,20,6
18,20,10,100,6
18,16,3,30,6
19,17,2,20,6
19,20,5,50,6
19,15,3,30,6
20,18,10,100,6
20,19,5,50,6
20,21,3,30,6
20,22,4,40,6
21,20,3,30,6
21,22,3,30,6
21,24,3,30,6
22,15,2,20,6
22,20,4,40,6
22,21,3,30,6
22,23,3,30,6
23,14,2,20,6
23,22,3,30,6
23,24,3,30,6
24,23,3,30,6
24,21,3,30,6
24,13,3,30,6
25,4,1,10,6
26,12,1,10,6
0,1,1,10,7
0,27,0,0,7
1,2,8,80,7
1,3,2,20,7
1,27,1,10,7
2,1,8,80,7
2,6,2,20,7
3,1,2,20,7
3,4,3,30,7
3,12,4,40,7
4,3,3,30,7
4,5,3,30,7
4,11,4,40,7
4,25,1,10,7
5,4,3,30,7
5,6,3,30,7
5,9,2,20,7
6,2,2,20,7
6,5,3,30,7
6,8,2,20,7
7,8,3,30,7
7,18,2,20,7
8,6,2,20,7
8,7,3,30,7
8,9,3,30,7
8,16,2,20,7
9,5,2,20,7
9,8,3,30,7
9,10,2,20,7
10,9,2,20,7
10,11,3,30,7
10,16,3,30,7
10,17,4,40,7
10,15,4,40,7
11,4,4,40,7
11,10,3,30,7
11,14,4,40,7
11,12,3,30,7
12,3,4,40,7
12,11,3,30,7
12,13,9,90,7
12,26,1,10,7
13,12,9,90,7
13,24,3,30,7
14,11,4,40,7
14,15,3,30,7
14,23,2,20,7
15,10,4,40,7
15,19,3,30,7
15,22,2,20,7
15,14,3,30,7
16,8,2,20,7
16,18,3,30,7
16,17,2,20,7
16,10,3,30,7
17,16,2,20,7
17,19,2,20,7
17,10,4,40,7
18,7,2,20,7
18,20,10,100,7
18,16,3,30,7
19,17,2,20,7
19,20,5,50,7
19,15,3,30,7
20,18,10,100,7
20,19,5,50,7
20,21,3,30,7
20,22,4,40,7
21,20,3,30,7
21,22,3,30,7
21,24,3,30,7
22,15,2,20,7
22,20,4,40,7
22,21,3,30,7
22,23,3,30,7
23,14,2,20,7
23,22,3,30,7
23,24,3,30,7
24,23,3,30,7
24,21,3,30,7
24,13,3,30,7
25,4,1,10,7
26,12,1,10,7
0,1,1,10,8
0,27,0,0,8
1,2,8,80,8
1,3,2,20,8
1,27,1,10,8
2,1,8,80,8
2,6,2,20,8
3,1,2,20,8
3,4,3,30,8
3,12,4,40,8
4,3,3,30,8
4,5,3,30,8
4,11,4,40,8
4,25,1,10,8
5,4,3,30,8
5,6,3,30,8
5,9,2,20,8
6,2,2,20,8
6,5,3,30,8
6,8,2,20,8
7,8,3,30,8
7,18,2,20,8
8,6,2,20,8
8,7,3,30,8
8,9,3,30,8
8,16,2,20,8
9,5,2,20,8
9,8,3,30,8
9,10,2,20,8
10,9,2,20,8
10,11,3,30,8
10,16,3,30,8
10,17,4,40,8
10,15,4,40,8
11,4,4,40,8
11,10,3,30,8
11,14,4,40,8
11,12,3,30,8
12,3,4,40,8
12,11,3,30,8
12,13,9,90,8
12,26,1,10,8
13,12,9,90,8
13,24,3,30,8
14,11,4,40,8
14,15,3,30,8
14,23,2,20,8
15,10,4,40,8
15,19,3,30,8
15,22,2,20,8
15,14,3,30,8
16,8,2,20,8
16,18,3,30,8
16,17,2,20,8
16,10,3,30,8
17,16,2,20,8
17,19,2,20,8
17,10,4,40,8
18,7,2,20,8
18,20,10,100,8
18,16,3,30,8
19,17,2,20,8
19,20,5,50,8
19,15,3,30,8
20,18,10,100,8
20,19,5,50,8
20,21,3,30,8
20,22,4,40,8
21,20,3,30,8
21,22,3,30,8
21,24,3,30,8
22,15,2,20,8
22,20,4,40,8
22,21,3,30,8
22,23,3,30,8
23,14,2,20,8
23,22,3,30,8
23,24,3,30,8
24,23,3,30,8
24,21,3,30,8
24,13,3,30,8
25,4,1,10,8
26,12,1,10,8
0,1,1,10,9
0,27,0,0,9
1,2,8,80,9
1,3,2,20,9
1,27,1,10,9
2,1,8,80,9
2,6,2,20,9
3,1,2,20,9
3,4,3,30,9
3,12,4,40,9
4,3,3,30,9
4,5,3,30,9
4,11,4,40,9
4,25,1,10,9
5,4,3,30,9
5,6,3,30,9
5,9,2,20,9
6,2,2,20,9
6,5,3,30,9
6,8,2,20,9
7,8,3,30,9
7,18,2,20,9
8,6,2,20,9
8,7,3,30,9
8,9,3,30,9
8,16,2,20,9
9,5,2,20,9
9,8,3,30,9
9,10,2,20,9
10,9,2,20,9
10,11,3,30,9
10,16,3,30,9
10,17,4,40,9
10,15,4,40,9
11,4,4,40,9
11,10,3,30,9
11,14,4,40,9
11,12,3,30,9
12,3,4,40,9
12,11,3,30,9
12,13,9,90,9
12,26,1,10,9
13,12,9,90,9
13,24,3,30,9
14,11,4,40,9
14,15,3,30,9
14,23,2,20,9
15,10,4,40,9
15,19,3,30,9
15,22,2,20,9
15,14,3,30,9
16,8,2,20,9
16,18,3,30,9
16,17,2,20,9
16,10,3,30,9
17,16,2,20,9
17,19,2,20,9
17,10,4,40,9
18,7,2,20,9
18,20,10,100,9
18,16,3,30,9
19,17,2,20,9
19,20,5,50,9
19,15,3,30,9
20,18,10,100,9
20,19,5,50,9
20,21,3,30,9
20,22,4,40,9
21,20,3,30,9
21,22,3,30,9
21,24,3,30,9
22,15,2,20,9
22,20,4,40,9
22,21,3,30,9
22,23,3,30,9
23,14,2,20,9
23,22,3,30,9
23,24,3,30,9
24,23,3,30,9
24,21,3,30,9
24,13,3,30,9
25,4,1,10,9
26,12,1,10,9
0,1,1,10,10
0,27,0,0,10
1,2,8,80,10
1,3,2,20,10
1,27,1,10,10
2,1,8,80,10
2,6,2,20,10
3,1,2,20,10
3,4,3,30,10
3,12,4,40,10
4,3,3,30,10
4,5,3,30,10
4,11,4,40,10
4,25,1,10,10
5,4,3,30,10
5,6,3,30,10
5,9,2,20,10
6,2,2,20,10
6,5,3,30,10
6,8,2,20,10
7,8,3,30,10
7,18,2,20,10
8,6,2,20,10
8,7,3,30,10
8,9,3,30,10
8,16,2,20,10
9,5,2,20,10
9,8,3,30,10
9,10,2,20,10
10,9,2,20,10
10,11,3,30,10
10,16,3,30,10
10,17,4,40,10
10,15,4,40,10
11,4,4,40,10
11,10,3,30,10
11,14,4,40,10
11,12,3,30,10
12,3,4,40,10
12,11,3,30,10
12,13,9,90,10
12,26,1,10,10
13,12,9,90,10
13,24,3,30,10
14,11,4,40,10
14,15,3,30,10
14,23,2,20,10
15,10,4,40,10
15,19,3,30,10
15,22,2,20,10
15,14,3,30,10
16,8,2,20,10
16,18,3,30,10
16,17,2,20,10
16,10,3,30,10
17,16,2,20,10
17,19,2,20,10
17,10,4,40,10
18,7,2,20,10
18,20,10,100,10
18,16,3,30,10
19,17,2,20,10
19,20,5,50,10
19,15,3,30,10
20,18,10,100,10
20,19,5,50,10
20,21,3,30,10
20,22,4,40,10
21,20,3,30,10
21,22,3,30,10
21,24,3,30,10
22,15,2,20,10
22,20,4,40,10
22,21,3,30,10
22,23,3,30,10
23,14,2,20,10
23,22,3,30,10
23,24,3,30,10
24,23,3,30,10
24,21,3,30,10
24,13,3,30,10
25,4,1,10,10
26,12,1,10,10
0,1,1,10,11
0,27,0,0,11
1,2,8,80,11
1,3,2,20,11
1,27,1,10,11
2,1,8,80,11
2,6,2,20,11
3,1,2,20,11
3,4,3,30,11
3,12,4,40,11
4,3,3,30,11
4,5,3,30,11
4,11,4,40,11
4,25,1,10,11
5,4,3,30,11
5,6,3,30,11
5,9,2,20,11
6,2,2,20,11
6,5,3,30,11
6,8,2,20,11
7,8,3,30,11
7,18,2,20,11
8,6,2,20,11
8,7,3,30,11
8,9,3,30,11
8,16,2,20,11
9,5,2,20,11
9,8,3,30,11
9,10,2,20,11
10,9,2,20,11
10,11,3,30,11
10,16,3,30,11
10,17,4,40,11
10,15,4,40,11
11,4,4,40,11
11,10,3,30,11
11,14,4,40,11
11,12,3,30,11
12,3,4,40,11
12,11,3,30,11
12,13,9,90,11
12,26,1,10,11
13,12,9,90,11
13,24,3,30,11
14,11,4,40,11
14,15,3,30,11
14,23,2,20,11
15,10,4,40,11
15,19,3,30,11
15,22,2,20,11
15,14,3,30,11
16,8,2,20,11
16,18,3,30,11
16,17,2,20,11
16,10,3,30,11
17,16,2,20,11
17,19,2,20,11
17,10,4,40,11
18,7,2,20,11
18,20,10,100,11
18,16,3,30,11
19,17,2,20,11
19,20,5,50,11
19,15,3,30,11
20,18,10,100,11
20,19,5,50,11
20,21,3,30,11
20,22,4,40,11
21,20,3,30,11
21,22,3,30,11
21,24,3,30,11
22,15,2,20,11
22,20,4,40,11
22,21,3,30,11
22,23,3,30,11
23,14,2,20,11
23,22,3,30,11
23,24,3,30,11
24,23,3,30,11
24,21,3,30,11
24,13,3,30,11
25,4,1,10,11
26,12,1,10,11
0,1,1,10,12
0,27,0,0,12
1,2,8,80,12
1,3,2,20,12
1,27,1,10,12
2,1,8,80,12
2,6,2,20,12
3,1,2,20,12
3,4,3,30,12
3,12,4,40,12
4,3,3,30,12
4,5,3,30,12
4,11,4,40,12
4,25,1,10,12
5,4,3,30,12
5,6,3,30,12
5,9,2,20,12
6,2,2,20,12
6,5,3,30,12
6,8,2,20,12
7,8,3,30,12
7,18,2,20,12
8,6,2,20,12
8,7,3,30,12
8,9,3,30,12
8,16,2,20,12
9,5,2,20,12
9,8,3,30,12
9,10,2,20,12
10,9,2,20,12
10,11,3,30,12
10,16,3,30,12
10,17,4,40,12
10,15,4,40,12
11,4,4,40,12
11,10,3,30,12
11,14,4,40,12
11,12,3,30,12
12,3,4,40,12
12,11,3,30,12
12,13,9,90,12
12,26,1,10,12
13,12,9,90,12
13,24,3,30,12
14,11,4,40,12
14,15,3,30,12
14,23,2,20,12
15,10,4,40,12
15,19,3,30,12
15,22,2,20,12
15,14,3,30,12
16,8,2,20,12
16,18,3,30,12
16,17,2,20,12
16,10,3,30,12
17,16,2,20,12
17,19,2,20,12
17,10,4,40,12
18,7,2,20,12
18,20,10,100,12
18,16,3,30,12
19,17,2,20,12
19,20,5,50,12
19,15,3,30,12
20,18,10,100,12
20,19,5,50,12
20,21,3,30,12
20,22,4,40,12
21,20,3,30,12
21,22,3,30,12
21,24,3,30,12
22,15,2,20,12
22,20,4,40,12
22,21,3,30,12
22,23,3,30,12
23,14,2,20,12
23,22,3,30,12
23,24,3,30,12
24,23,3,30,12
24,21,3,30,12
24,13,3,30,12
25,4,1,10,12
26,12,1,10,12
0,1,1,10,13
0,27,0,0,13
1,2,8,80,13
1,3,2,20,13
1,27,1,10,13
2,1,8,80,13
2,6,2,20,13
3,1,2,20,13
3,4,3,30,13
3,12,4,40,13
4,3,3,30,13
4,5,3,30,13
4,11,4,40,13
4,25,1,10,13
5,4,3,30,13
5,6,3,30,13
5,9,2,20,13
6,2,2,20,13
6,5,3,30,13
6,8,2,20,13
7,8,3,30,13
7,18,2,20,13
8,6,2,20,13
8,7,3,30,13
8,9,3,30,13
8,16,2,20,13
9,5,2,20,13
9,8,3,30,13
9,10,2,20,13
10,9,2,20,13
10,11,3,30,13
10,16,3,30,13
10,17,4,40,13
10,15,4,40,13
11,4,4,40,13
11,10,3,30,13
11,14,4,40,13
11,12,3,30,13
12,3,4,40,13
12,11,3,30,13
12,13,9,90,13
12,26,1,10,13
13,12,9,90,13
13,24,3,30,13
14,11,4,40,13
14,15,3,30,13
14,23,2,20,13
15,10,4,40,13
15,19,3,30,13
15,22,2,20,13
15,14,3,30,13
16,8,2,20,13
16,18,3,30,13
16,17,2,20,13
16,10,3,30,13
17,16,2,20,13
17,19,2,20,13
17,10,4,40,13
18,7,2,20,13
18,20,10,100,13
18,16,3,30,13
19,17,2,20,13
19,20,5,50,13
19,15,3,30,13
20,18,10,100,13
20,19,5,50,13
20,21,3,30,13
20,22,4,40,13
21,20,3,30,13
21,22,3,30,13
21,24,3,30,13
22,15,2,20,13
22,20,4,40,13
22,21,3,30,13
22,23,3,30,13
23,14,2,20,13
23,22,3,30,13
23,24,3,30,13
24,23,3,30,13
24,21,3,30,13
24,13,3,30,13
25,4,1,10,13
26,12,1,10,13
0,1,1,10,14
0,27,0,0,14
1,2,8,80,14
1,3,2,20,14
1,27,1,10,14
2,1,8,80,14
2,6,2,20,14
3,1,2,20,14
3,4,3,30,14
3,12,4,40,14
4,3,3,30,14
4,5,3,30,14
4,11,4,40,14
4,25,1,10,14
5,4,3,30,14
5,6,3,30,14
5,9,2,20,14
6,2,2,20,14
6,5,3,30,14
6,8,2,20,14
7,8,3,30,14
7,18,2,20,14
8,6,2,20,14
8,7,3,30,14
8,9,3,30,14
8,16,2,20,14
9,5,2,20,14
9,8,3,30,14
9,10,2,20,14
10,9,2,20,14
10,11,3,30,14
10,16,3,30,14
10,17,4,40,14
10,15,4,40,14
11,4,4,40,14
11,10,3,30,14
11,14,4,40,14
11,12,3,30,14
12,3,4,40,14
12,11,3,30,14
12,13,9,90,14
12,26,1,10,14
13,12,9,90,14
13,24,3,30,14
14,11,4,40,14
14,15,3,30,14
14,23,2,20,14
15,10,4,40,14
15,19,3,30,14
15,22,2,20,14
15,14,3,30,14
16,8,2,20,14
16,18,3,30,14
16,17,2,20,14
16,10,3,30,14
17,16,2,20,14
17,19,2,20,14
17,10,4,40,14
18,7,2,20,14
18,20,10,100,14
18,16,3,30,14
19,17,2,20,14
19,20,5,50,14
19,15,3,30,14
20,18,10,100,14
20,19,5,50,14
20,21,3,30,14
20,22,4,40,14
21,20,3,30,14
21,22,3,30,14
21,24,3,30,14
22,15,2,20,14
22,20,4,40,14
22,21,3,30,14
22,23,3,30,14
23,14,2,20,14
23,22,3,30,14
23,24,3,30,14
24,23,3,30,14
24,21,3,30,14
24,13,3,30,14
25,4,1,10,14
26,12,1,10,14
0,1,1,10,15
0,27,0,0,15
1,2,8,80,15
1,3,2,20,15
1,27,1,10,15
2,1,8,80,15
2,6,2,20,15
3,1,2,20,15
3,4,3,30,15
3,12,4,40,15
4,3,3,30,15
4,5,3,30,15
4,11,4,40,15
4,25,1,10,15
5,4,3,30,15
5,6,3,30,15
5,9,2,20,15
6,2,2,20,15
6,5,3,30,15
6,8,2,20,15
7,8,3,30,15
7,18,2,20,15
8,6,2,20,15
8,7,3,30,15
8,9,3,30,15
8,16,2,20,15
9,5,2,20,15
9,8,3,30,15
9,10,2,20,15
10,9,2,20,15
10,11,3,30,15
10,16,3,30,15
10,17,4,40,15
10,15,4,40,15
11,4,4,40,15
11,10,3,30,15
11,14,4,40,15
11,12,3,30,15
12,3,4,40,15
12,11,3,30,15
12,13,9,90,15
12,26,1,10,15
13,12,9,90,15
13,24,3,30,15
14,11,4,40,15
14,15,3,30,15
14,23,2,20,15
15,10,4,40,15
15,19,3,30,15
15,22,2,20,15
15,14,3,30,15
16,8,2,20,15
16,18,3,30,15
16,17,2,20,15
16,10,3,30,15
17,16,2,20,15
17,19,2,20,15
17,10,4,40,15
18,7,2,20,15
18,20,10,100,15
18,16,3,30,15
19,17,2,20,15
19,20,5,50,15
19,15,3,30,15
20,18,10,100,15
20,19,5,50,15
20,21,3,30,15
20,22,4,40,15
21,20,3,30,15
21,22,3,30,15
21,24,3,30,15
22,15,2,20,15
22,20,4,40,15
22,21,3,30,15
22,23,3,30,15
23,14,2,20,15
23,22,3,30,15
23,24,3,30,15
24,23,3,30,15
24,21,3,30,15
24,13,3,30,15
25,4,1,10,15
26,12,1,10,15
0,1,1,10,16
0,27,0,0,16
1,2,8,80,16
1,3,2,20,16
1,27,1,10,16
2,1,8,80,16
2,6,2,20,16
3,1,2,20,16
3,4,3,30,16
3,12,4,40,16
4,3,3,30,16
4,5,3,30,16
4,11,4,40,16
4,25,1,10,16
5,4,3,30,16
5,6,3,30,16
5,9,2,20,16
6,2,2,20,16
6,5,3,30,16
6,8,2,20,16
7,8,3,30,16
7,18,2,20,16
8,6,2,20,16
8,7,3,30,16
8,9,3,30,16
8,16,2,20,16
9,5,2,20,16
9,8,3,30,16
9,10,2,20,16
10,9,2,20,16
10,11,3,30,16
10,16,3,30,16
10,17,4,40,16
10,15,4,40,16
11,4,4,40,16
11,10,3,30,16
11,14,4,40,16
11,12,3,30,16
12,3,4,40,16
12,11,3,30,16
12,13,9,90,16
12,26,1,10,16
13,12,9,90,16
13,24,3,30,16
14,11,4,40,16
14,15,3,30,16
14,23,2,20,16
15,10,4,40,16
15,19,3,30,16
15,22,2,20,16
15,14,3,30,16
16,8,2,20,16
16,18,3,30,16
16,17,2,20,16
16,10,3,30,16
17,16,2,20,16
17,19,2,20,16
17,10,4,40,16
18,7,2,20,16
18,20,10,100,16
18,16,3,30,16
19,17,2,20,16
19,20,5,50,16
19,15,3,30,16
20,18,10,100,16
20,19,5,50,16
20,21,3,30,16
20,22,4,40,16
21,20,3,30,16
21,22,3,30,16
21,24,3,30,16
22,15,2,20,16
22,20,4,40,16
22,21,3,30,16
22,23,3,30,16
23,14,2,20,16
23,22,3,30,16
23,24,3,30,16
24,23,3,30,16
24,21,3,30,16
24,13,3,30,16
25,4,1,10,16
26,12,1,10,16
0,1,1,10,17
0,27,0,0,17
1,2,8,80,17
1,3,2,20,17
1,27,1,10,17
2,1,8,80,17
2,6,2,20,17
3,1,2,20,17
3,4,3,30,17
3,12,4,40,17
4,3,3,30,17
4,5,3,30,17
4,11,4,40,17
4,25,1,10,17
5,4,3,30,17
5,6,3,30,17
5,9,2,20,17
6,2,2,20,17
6,5,3,30,17
6,8,2,20,17
7,8,3,30,17
7,18,2,20,17
8,6,2,20,17
8,7,3,30,17
8,9,3,30,17
8,16,2,20,17
9,5,2,20,17
9,8,3,30,17
9,10,2,20,17
10,9,2,20,17
10,11,3,30,17
10,16,3,30,17
10,17,4,40,17
10,15,4,40,17
11,4,4,40,17
11,10,3,30,17
11,14,4,40,17
11,12,3,30,17
12,3,4,40,17
12,11,3,30,17
12,13,9,90,17
12,26,1,10,17
13,12,9,90,17
13,24,3,30,17
14,11,4,40,17
14,15,3,30,17
14,23,2,20,17
15,10,4,40,17
15,19,3,30,17
15,22,2,20,17
15,14,3,30,17
16,8,2,20,17
16,18,3,30,17
16,17,2,20,17
16,10,3,30,17
17,16,2,20,17
17,19,2,20,17
17,10,4,40,17
18,7,2,20,17
18,20,10,100,17
18,16,3,30,17
19,17,2,20,17
19,20,5,50,17
19,15,3,30,17
20,18,10,100,17
20,19,5,50,17
20,21,3,30,17
20,22,4,40,17
21,20,3,30,17
21,22,3,30,17
21,24,3,30,17
22,15,2,20,17
22,20,4,40,17
22,21,3,30,17
22,23,3,30,17
23,14,2,20,17
23,22,3,30,17
23,24,3,30,17
24,23,3,30,17
24,21,3,30,17
24,13,3,30,17
25,4,1,10,17
26,12,1,10,17
0,1,1,10,18
0,27,0,0,18
1,2,8,80,18
1,3,2,20,18
1,27,1,10,18
2,1,8,80,18
2,6,2,20,18
3,1,2,20,18
3,4,3,30,18
3,12,4,40,18
4,3,3,30,18
4,5,3,30,18
4,11,4,40,18
4,25,1,10,18
5,4,3,30,18
5,6,3,30,18
5,9,2,20,18
6,2,2,20,18
6,5,3,30,18
6,8,2,20,18
7,8,3,30,18
7,18,2,20,18
8,6,2,20,18
8,7,3,30,18
8,9,3,30,18
8,16,2,20,18
9,5,2,20,18
9,8,3,30,18
9,10,2,20,18
10,9,2,20,18
10,11,3,30,18
10,16,3,30,18
10,17,4,40,18
10,15,4,40,18
11,4,4,40,18
11,10,3,30,18
11,14,4,40,18
11,12,3,30,18
12,3,4,40,18
12,11,3,30,18
12,13,9,90,18
12,26,1,10,18
13,12,9,90,18
13,24,3,30,18
14,11,4,40,18
14,15,3,30,18
14,23,2,20,18
15,10,4,40,18
15,19,3,30,18
15,22,2,20,18
15,14,3,30,18
16,8,2,20,18
16,18,3,30,18
16,17,2,20,18
16,10,3,30,18
17,16,2,20,18
17,19,2,20,18
17,10,4,40,18
18,7,2,20,18
18,20,10,100,18
18,16,3,30,18
19,17,2,20,18
19,20,5,50,18
19,15,3,30,18
20,18,10,100,18
20,19,5,50,18
20,21,3,30,18
20,22,4,40,18
21,20,3,30,18
21,22,3,30,18
21,24,3,30,18
22,15,2,20,18
22,20,4,40,18
22,21,3,30,18
22,23,3,30,18
23,14,2,20,18
23,22,3,30,18
23,24,3,30,18
24,23,3,30,18
24,21,3,30,18
24,13,3,30,18
25,4,1,10,18
26,12,1,10,18
0,1,1,10,19
0,27,0,0,19
1,2,8,80,19
1,3,2,20,19
1,27,1,10,19
2,1,8,80,19
2,6,2,20,19
3,1,2,20,19
3,4,3,30,19
3,12,4,40,19
4,3,3,30,19
4,5,3,30,19
4,11,4,40,19
4,25,1,10,19
5,4,3,30,19
5,6,3,30,19
5,9,2,20,19
6,2,2,20,19
6,5,3,30,19
6,8,2,20,19
7,8,3,30,19
7,18,2,20,19
8,6,2,20,19
8,7,3,30,19
8,9,3,30,19
8,16,2,20,19
9,5,2,20,19
9,8,3,30,19
9,10,2,20,19
10,9,2,20,19
10,11,3,30,19
10,16,3,30,19
10,17,4,40,19
10,15,4,40,19
11,4,4,40,19
11,10,3,30,19
11,14,4,40,19
11,12,3,30,19
12,3,4,40,19
12,11,3,30,19
12,13,9,90,19
12,26,1,10,19
13,12,9,90,19
13,24,3,30,19
14,11,4,40,19
14,15,3,30,19
14,23,2,20,19
15,10,4,40,19
15,19,3,30,19
15,22,2,20,19
15,14,3,30,19
16,8,2,20,19
16,18,3,30,19
16,17,2,20,19
16,10,3,30,19
17,16,2,20,19
17,19,2,20,19
17,10,4,40,19
18,7,2,20,19
18,20,10,100,19
18,16,3,30,19
19,17,2,20,19
19,20,5,50,19
19,15,3,30,19
20,18,10,100,19
20,19,5,50,19
20,21,3,30,19
20,22,4,40,19
21,20,3,30,19
21,22,3,30,19
21,24,3,30,19
22,15,2,20,19
22,20,4,40,19
22,21,3,30,19
22,23,3,30,19
23,14,2,20,19
23,22,3,30,19
23,24,3,30,19
24,23,3,30,19
24,21,3,30,19
24,13,3,30,19
25,4,1,10,19
26,12,1,10,19
0,1,1,10,20
0,27,0,0,20
1,2,8,80,20
1,3,2,20,20
1,27,1,10,20
2,1,8,80,20
2,6,2,20,20
3,1,2,20,20
3,4,3,30,20
3,12,4,40,20
4,3,3,30,20
4,5,3,30,20
4,11,4,40,20
4,25,1,10,20
5,4,3,30,20
5,6,3,30,20
5,9,2,20,20
6,2,2,20,20
6,5,3,30,20
6,8,2,20,20
7,8,3,30,20
7,18,2,20,20
8,6,2,20,20
8,7,3,30,20
8,9,3,30,20
8,16,2,20,20
9,5,2,20,20
9,8,3,30,20
9,10,2,20,20
10,9,2,20,20
10,11,3,30,20
10,16,3,30,20
10,17,4,40,20
10,15,4,40,20
11,4,4,40,20
11,10,3,30,20
11,14,4,40,20
11,12,3,30,20
12,3,4,40,20
12,11,3,30,20
12,13,9,90,20
12,26,1,10,20
13,12,9,90,20
13,24,3,30,20
14,11,4,40,20
14,15,3,30,20
14,23,2,20,20
15,10,4,40,20
15,19,3,30,20
15,22,2,20,20
15,14,3,30,20
16,8,2,20,20
16,18,3,30,20
16,17,2,20,20
16,10,3,30,20
17,16,2,20,20
17,19,2,20,20
17,10,4,40,20
18,7,2,20,20
18,20,10,100,20
18,16,3,30,20
19,17,2,20,20
19,20,5,50,20
19,15,3,30,20
20,18,10,100,20
20,19,5,50,20
20,21,3,30,20
20,22,4,40,20
21,20,3,30,20
21,22,3,30,20
21,24,3,30,20
22,15,2,20,20
22,20,4,40,20
22,21,3,30,20
22,23,3,30,20
23,14,2,20,20
23,22,3,30,20
23,24,3,30,20
24,23,3,30,20
24,21,3,30,20
24,13,3,30,20
25,4,1,10,20
26,12,1,10,20
0,1,1,10,21
0,27,0,0,21
1,2,8,80,21
1,3,2,20,21
1,27,1,10,21
2,1,8,80,21
2,6,2,20,21
3,1,2,20,21
3,4,3,30,21
3,12,4,40,21
4,3,3,30,21
4,5,3,30,21
4,11,4,40,21
4,25,1,10,21
5,4,3,30,21
5,6,3,30,21
5,9,2,20,21
6,2,2,20,21
6,5,3,30,21
6,8,2,20,21
7,8,3,30,21
7,18,2,20,21
8,6,2,20,21
8,7,3,30,21
8,9,3,30,21
8,16,2,20,21
9,5,2,20,21
9,8,3,30,21
9,10,2,20,21
10,9,2,20,21
10,11,3,30,21
10,16,3,30,21
10,17,4,40,21
10,15,4,40,21
11,4,4,40,21
11,10,3,30,21
11,14,4,40,21
11,12,3,30,21
12,3,4,40,21
12,11,3,30,21
12,13,9,90,21
12,26,1,10,21
13,12,9,90,21
13,24,3,30,21
14,11,4,40,21
14,15,3,30,21
14,23,2,20,21
15,10,4,40,21
15,19,3,30,21
15,22,2,20,21
15,14,3,30,21
16,8,2,20,21
16,18,3,30,21
16,17,2,20,21
16,10,3,30,21
17,16,2,20,21
17,19,2,20,21
17,10,4,40,21
18,7,2,20,21
18,20,10,100,21
18,16,3,30,21
19,17,2,20,21
19,20,5,50,21
19,15,3,30,21
20,18,10,100,21
20,19,5,50,21
20,21,3,30,21
20,22,4,40,21
21,20,3,30,21
21,22,3,30,21
21,24,3,30,21
22,15,2,20,21
22,20,4,40,21
22,21,3,30,21
22,23,3,30,21
23,14,2,20,21
23,22,3,30,21
23,24,3,30,21
24,23,3,30,21
24,21,3,30,21
24,13,3,30,21
25,4,1,10,21
26,12,1,10,21
0,1,1,10,22
0,27,0,0,22
1,2,8,80,22
1,3,2,20,22
1,27,1,10,22
2,1,8,80,22
2,6,2,20,22
3,1,2,20,22
3,4,3,30,22
3,12,4,40,22
4,3,3,30,22
4,5,3,30,22
4,11,4,40,22
4,25,1,10,22
5,4,3,30,22
5,6,3,30,22
5,9,2,20,22
6,2,2,20,22
6,5,3,30,22
6,8,2,20,22
7,8,3,30,22
7,18,2,20,22
8,6,2,20,22
8,7,3,30,22
8,9,3,30,22
8,16,2,20,22
9,5,2,20,22
9,8,3,30,22
9,10,2,20,22
10,9,2,20,22
10,11,3,30,22
10,16,3,30,22
10,17,4,40,22
10,15,4,40,22
11,4,4,40,22
11,10,3,30,22
11,14,4,40,22
11,12,3,30,22
12,3,4,40,22
12,11,3,30,22
12,13,9,90,22
12,26,1,10,22
13,12,9,90,22
13,24,3,30,22
14,11,4,40,22
14,15,3,30,22
14,23,2,20,22
15,10,4,40,22
15,19,3,30,22
15,22,2,20,22
15,14,3,30,22
16,8,2,20,22
16,18,3,30,22
16,17,2,20,22
16,10,3,30,22
17,16,2,20,22
17,19,2,20,22
17,10,4,40,22
18,7,2,20,22
18,20,10,100,22
18,16,3,30,22
19,17,2,20,22
19,20,5,50,22
19,15,3,30,22
20,18,10,100,22
20,19,5,50,22
20,21,3,30,22
20,22,4,40,22
21,20,3,30,22
21,22,3,30,22
21,24,3,30,22
22,15,2,20,22
22,20,4,40,22
22,21,3,30,22
22,23,3,30,22
23,14,2,20,22
23,22,3,30,22
23,24,3,30,22
24,23,3,30,22
24,21,3,30,22
24,13,3,30,22
25,4,1,10,22
26,12,1,10,22
0,1,1,10,23
0,27,0,0,23
1,2,8,80,23
1,3,2,20,23
1,27,1,10,23
2,1,8,80,23
2,6,2,20,23
3,1,2,20,23
3,4,3,30,23
3,12,4,40,23
4,3,3,30,23
4,5,3,30,23
4,11,4,40,23
4,25,1,10,23
5,4,3,30,23
5,6,3,30,23
5,9,2,20,23
6,2,2,20,23
6,5,3,30,23
6,8,2,20,23
7,8,3,30,23
7,18,2,20,23
8,6,2,20,23
8,7,3,30,23
8,9,3,30,23
8,16,2,20,23
9,5,2,20,23
9,8,3,30,23
9,10,2,20,23
10,9,2,20,23
10,11,3,30,23
10,16,3,30,23
10,17,4,40,23
10,15,4,40,23
11,4,4,40,23
11,10,3,30,23
11,14,4,40,23
11,12,3,30,23
12,3,4,40,23
12,11,3,30,23
12,13,9,90,23
12,26,1,10,23
13,12,9,90,23
13,24,3,30,23
14,11,4,40,23
14,15,3,30,23
14,23,2,20,23
15,10,4,40,23
15,19,3,30,23
15,22,2,20,23
15,14,3,30,23
16,8,2,20,23
16,18,3,30,23
16,17,2,20,23
16,10,3,30,23
17,16,2,20,23
17,19,2,20,23
17,10,4,40,23
18,7,2,20,23
18,20,10,100,23
18,16,3,30,23
19,17,2,20,23
19,20,5,50,23
19,15,3,30,23
20,18,10,100,23
20,19,5,50,23
20,21,3,30,23
20,22,4,40,23
21,20,3,30,23
21,22,3,30,23
21,24,3,30,23
22,15,2,20,23
22,20,4,40,23
22,21,3,30,23
22,23,3,30,23
23,14,2,20,23
23,22,3,30,23
23,24,3,30,23
24,23,3,30,23
24,21,3,30,23
24,13,3,30,23
25,4,1,10,23
26,12,1,10,23
0,1,1,10,24
0,27,0,0,24
1,2,8,80,24
1,3,2,20,24
1,27,1,10,24
2,1,8,80,24
2,6,2,20,24
3,1,2,20,24
3,4,3,30,24
3,12,4,40,24
4,3,3,30,24
4,5,3,30,24
4,11,4,40,24
4,25,1,10,24
5,4,3,30,24
5,6,3,30,24
5,9,2,20,24
6,2,2,20,24
6,5,3,30,24
6,8,2,20,24
7,8,3,30,24
7,18,2,20,24
8,6,2,20,24
8,7,3,30,24
8,9,3,30,24
8,16,2,20,24
9,5,2,20,24
9,8,3,30,24
9,10,2,20,24
10,9,2,20,24
10,11,3,30,24
10,16,3,30,24
10,17,4,40,24
10,15,4,40,24
11,4,4,40,24
11,10,3,30,24
11,14,4,40,24
11,12,3,30,24
12,3,4,40,24
12,11,3,30,24
12,13,9,90,24
12,26,1,10,24
13,12,9,90,24
13,24,3,30,24
14,11,4,40,24
14,15,3,30,24
14,23,2,20,24
15,10,4,40,24
15,19,3,30,24
15,22,2,20,24
15,14,3,30,24
16,8,2,20,24
16,18,3,30,24
16,17,2,20,24
16,10,3,30,24
17,16,2,20,24
17,19,2,20,24
17,10,4,40,24
18,7,2,20,24
18,20,10,100,24
18,16,3,30,24
19,17,2,20,24
19,20,5,50,24
19,15,3,30,24
20,18,10,100,24
20,19,5,50,24
20,21,3,30,24
20,22,4,40,24
21,20,3,30,24
21,22,3,30,24
21,24,3,30,24
22,15,2,20,24
22,20,4,40,24
22,21,3,30,24
22,23,3,30,24
23,14,2,20,24
23,22,3,30,24
23,24,3,30,24
24,23,3,30,24
24,21,3,30,24
24,13,3,30,24
25,4,1,10,24
26,12,1,10,24
0,1,1,10,25
0,27,0,0,25
1,2,8,80,25
1,3,2,20,25
1,27,1,10,25
2,1,8,80,25
2,6,2,20,25
3,1,2,20,25
3,4,3,30,25
3,12,4,40,25
4,3,3,30,25
4,5,3,30,25
4,11,4,40,25
4,25,1,10,25
5,4,3,30,25
5,6,3,30,25
5,9,2,20,25
6,2,2,20,25
6,5,3,30,25
6,8,2,20,25
7,8,3,30,25
7,18,2,20,25
8,6,2,20,25
8,7,3,30,25
8,9,3,30,25
8,16,2,20,25
9,5,2,20,25
9,8,3,30,25
9,10,2,20,25
10,9,2,20,25
10,11,3,30,25
10,16,3,30,25
10,17,4,40,25
10,15,4,40,25
11,4,4,40,25
11,10,3,30,25
11,14,4,40,25
11,12,3,30,25
12,3,4,40,25
12,11,3,30,25
12,13,9,90,25
12,26,1,10,25
13,12,9,90,25
13,24,3,30,25
14,11,4,40,25
14,15,3,30,25
14,23,2,20,25
15,10,4,40,25
15,19,3,30,25
15,22,2,20,25
15,14,3,30,25
16,8,2,20,25
16,18,3,30,25
16,17,2,20,25
16,10,3,30,25
17,16,2,20,25
17,19,2,20,25
17,10,4,40,25
18,7,2,20,25
18,20,10,100,25
18,16,3,30,25
19,17,2,20,25
19,20,5,50,25
19,15,3,30,25
20,18,10,100,25
20,19,5,50,25
20,21,3,30,25
20,22,4,40,25
21,20,3,30,25
21,22,3,30,25
21,24,3,30,25
22,15,2,20,25
22,20,4,40,25
22,21,3,30,25
22,23,3,30,25
23,14,2,20,25
23,22,3,30,25
23,24,3,30,25
24,23,3,30,25
24,21,3,30,25
24,13,3,30,25
25,4,1,10,25
26,12,1,10,25
